Minimize
  - 20 y_0 - 28 y_1 - 8 y_2 - 26 y_3 - 23 y_4 - 5 y_5 - 19 y_6 - 11 y_7
   - 19 y_8 - 16 y_9 - 15 y_10 - 16 y_11 - 22 y_12 - 12 y_13 - 16 y_14
   - 16 y_15 - 13 y_16 - 23 y_17 - 11 y_19 - 9 y_20 - 25 y_21 - 32 y_22
   - 19 y_23 - 10 y_24 - 25 y_25 - 20 y_26 - 4 y_27 - 13 y_28 - 23 y_29
   - 20 y_30 - 20 y_31 - 19 y_32 - 23 y_33 - 8 y_34 - 11 y_35 - 11 y_36
   - 21 y_37 - 27 y_38 - 24 y_39 - 14 y_40 - 24 y_41 - 29 y_42 - 25 y_43
   - 23 y_44 - 28 y_45 - 27 y_46 - 5 y_47 - 22 y_48 - 15 y_49 + 40 x_0_1
   + 56 x_0_2 + 17 x_0_3 + 22 x_0_4 + 45 x_0_5 + 12 x_0_6 + 36 x_0_10
   + 45 x_0_11 + 34 x_0_13 + 59 x_0_15 + 54 x_0_20 + 51 x_0_25 + 56 x_0_29
   + 37 x_0_30 + 60 x_0_31 + 17 x_0_35 + 70 x_0_38 + 17 x_0_43 + 76 x_0_45
   + 72 x_0_46 + 67 x_0_49 + 29 x_1_3 + 66 x_1_5 + 52 x_1_6 + 70 x_1_7
   + 33 x_1_11 + 39 x_1_12 + 32 x_1_13 + 86 x_1_15 + 77 x_1_19 + 61 x_1_20
   + 88 x_1_21 + 85 x_1_23 + 36 x_1_28 + 17 x_1_30 + 91 x_1_31 + 41 x_1_35
   + 55 x_1_36 + 97 x_1_37 + 84 x_1_39 + 7 x_1_41 + 26 x_1_43 + 32 x_1_44
   + 56 x_1_45 + 51 x_1_48 + 70 x_1_49 + 69 x_2_3 + 60 x_2_4 + 28 x_2_7
   + 51 x_2_8 + 39 x_2_10 + 50 x_2_12 + 38 x_2_13 + 48 x_2_14 + 27 x_2_15
   + 41 x_2_16 + 17 x_2_18 + 79 x_2_22 + 25 x_2_24 + 60 x_2_25 + 56 x_2_26
   + 21 x_2_27 + 43 x_2_28 + 53 x_2_29 + 56 x_2_33 + 58 x_2_38 + 64 x_2_41
   + 66 x_2_43 + 63 x_2_44 + 8 x_2_47 + 59 x_2_48 + 20 x_2_49 + 60 x_3_5
   + 29 x_3_6 + 52 x_3_9 + 53 x_3_10 + 59 x_3_12 + 38 x_3_13 + 75 x_3_15
   + 32 x_3_16 + 52 x_3_18 + 75 x_3_19 + 68 x_3_21 + 14 x_3_22 + 89 x_3_23
   + 16 x_3_26 + 51 x_3_27 + 54 x_3_29 + 34 x_3_30 + 77 x_3_31 + 38 x_3_34
   + 30 x_3_35 + 40 x_3_36 + 94 x_3_37 + 76 x_3_40 + 24 x_3_41 + 77 x_3_45
   + 72 x_3_46 + 61 x_3_47 + 12 x_4_6 + 10 x_4_8 + 67 x_4_9 + 27 x_4_10
   + 78 x_4_12 + 53 x_4_15 + 23 x_4_16 + 47 x_4_18 + 64 x_4_20 + 83 x_4_23
   + 62 x_4_24 + 72 x_4_25 + 41 x_4_26 + 40 x_4_27 + 32 x_4_28 + 58 x_4_30
   + 75 x_4_33 + 30 x_4_35 + 24 x_4_36 + 79 x_4_37 + 89 x_4_38 + 75 x_4_40
   + 55 x_4_41 + 98 x_4_42 + 31 x_4_44 + 90 x_4_46 + 76 x_4_49 + 16 x_5_7
   + 41 x_5_9 + 26 x_5_10 + 42 x_5_11 + 54 x_5_12 + 35 x_5_13 + 40 x_5_14
   + 30 x_5_16 + 17 x_5_19 + 21 x_5_20 + 71 x_5_22 + 36 x_5_23 + 49 x_5_26
   + 9 x_5_27 + 55 x_5_29 + 30 x_5_31 + 25 x_5_34 + 30 x_5_35 + 59 x_5_41
   + 58 x_5_43 + 63 x_5_45 + 33 x_6_7 + 6 x_6_8 + 26 x_6_10 + 52 x_6_11
   + 40 x_6_13 + 51 x_6_15 + 9 x_6_17 + 57 x_6_19 + 51 x_6_24 + 64 x_6_29
   + 50 x_6_31 + 17 x_6_32 + 78 x_6_38 + 45 x_6_41 + 87 x_6_42 + 23 x_6_44
   + 79 x_6_46 + 44 x_6_47 + 6 x_6_48 + 67 x_6_49 + 53 x_7_9 + 66 x_7_12
   + 44 x_7_13 + 18 x_7_15 + 26 x_7_16 + 22 x_7_18 + 30 x_7_19 + 71 x_7_22
   + 50 x_7_23 + 69 x_7_25 + 35 x_7_28 + 20 x_7_31 + 68 x_7_33 + 31 x_7_34
   + 30 x_7_35 + 45 x_7_40 + 81 x_7_42 + 57 x_7_43 + 78 x_7_45 + 38 x_7_48
   + 58 x_8_9 + 20 x_8_10 + 43 x_8_13 + 46 x_8_15 + 14 x_8_16 + 37 x_8_18
   + 55 x_8_19 + 32 x_8_21 + 49 x_8_22 + 74 x_8_23 + 65 x_8_25 + 51 x_8_30
   + 11 x_8_32 + 67 x_8_33 + 32 x_8_34 + 15 x_8_36 + 81 x_8_38 + 28 x_8_39
   + 36 x_8_43 + 43 x_8_47 + 60 x_9_10 + 6 x_9_11 + 13 x_9_12 + 15 x_9_13
   + 63 x_9_17 + 45 x_9_19 + 79 x_9_21 + 48 x_9_23 + 14 x_9_24 + 22 x_9_25
   + 39 x_9_27 + 17 x_9_33 + 26 x_9_34 + 36 x_9_35 + 46 x_9_36 + 65 x_9_37
   + 77 x_9_39 + 34 x_9_40 + 28 x_9_45 + 24 x_9_46 + 37 x_9_47 + 42 x_10_14
   + 27 x_10_15 + 23 x_10_16 + 31 x_10_18 + 41 x_10_19 + 50 x_10_24
   + 73 x_10_25 + 50 x_10_26 + 22 x_10_27 + 72 x_10_29 + 61 x_10_30
   + 12 x_10_32 + 73 x_10_33 + 30 x_10_35 + 16 x_10_36 + 83 x_10_38
   + 63 x_10_41 + 47 x_10_44 + 83 x_10_46 + 32 x_10_47 + 58 x_10_49
   + 15 x_11_12 + 11 x_11_13 + 64 x_11_15 + 59 x_11_17 + 48 x_11_19
   + 30 x_11_20 + 53 x_11_23 + 18 x_11_25 + 31 x_11_26 + 39 x_11_27
   + 16 x_11_30 + 72 x_11_31 + 15 x_11_33 + 44 x_11_36 + 29 x_11_41
   + 36 x_11_42 + 44 x_11_44 + 27 x_11_46 + 55 x_11_48 + 66 x_12_7
   + 56 x_12_16 + 44 x_12_18 + 37 x_12_20 + 92 x_12_21 + 56 x_12_23
   + 26 x_12_24 + 17 x_12_25 + 52 x_12_27 + 26 x_12_30 + 75 x_12_32
   + 10 x_12_33 + 48 x_12_35 + 90 x_12_39 + 42 x_12_40 + 22 x_12_42
   + 13 x_12_46 + 70 x_12_48 + 40 x_12_49 + 29 x_13_20 + 18 x_13_24
   + 25 x_13_25 + 23 x_13_26 + 30 x_13_27 + 20 x_13_28 + 16 x_13_30
   + 49 x_13_32 + 25 x_13_33 + 13 x_13_34 + 33 x_13_36 + 66 x_13_37
   + 40 x_13_40 + 26 x_13_41 + 47 x_13_42 + 35 x_13_43 + 38 x_13_46
   + 39 x_13_49 + 59 x_14_15 + 20 x_14_16 + 54 x_14_19 + 9 x_14_26
   + 32 x_14_27 + 38 x_14_29 + 63 x_14_31 + 37 x_14_33 + 26 x_14_36
   + 53 x_14_38 + 54 x_14_40 + 21 x_14_41 + 63 x_14_42 + 17 x_14_44
   + 55 x_14_46 + 54 x_14_49 + 43 x_15_16 + 57 x_15_17 + 32 x_15_18
   + 24 x_15_19 + 88 x_15_22 + 81 x_15_25 + 67 x_15_26 + 77 x_15_29
   + 72 x_15_30 + 38 x_15_32 + 45 x_15_34 + 28 x_15_37 + 83 x_15_38
   + 35 x_15_39 + 68 x_15_44 + 83 x_15_45 + 82 x_15_46 + 56 x_15_48
   + 25 x_16_18 + 42 x_16_20 + 53 x_16_25 + 27 x_16_26 + 12 x_16_28
   + 54 x_16_29 + 39 x_16_30 + 20 x_16_32 + 54 x_16_33 + 19 x_16_34
   + 8 x_16_35 + 8 x_16_36 + 37 x_16_39 + 40 x_16_41 + 46 x_17_18
   + 66 x_17_19 + 41 x_17_21 + 42 x_17_22 + 84 x_17_23 + 67 x_17_25
   + 27 x_17_28 + 52 x_17_30 + 27 x_17_35 + 24 x_17_44 + 90 x_17_45
   + 23 x_18_19 + 50 x_18_21 + 63 x_18_22 + 40 x_18_26 + 9 x_18_27
   + 26 x_18_28 + 45 x_18_29 + 37 x_18_32 + 47 x_18_33 + 15 x_18_34
   + 22 x_18_36 + 43 x_18_37 + 54 x_18_38 + 48 x_18_39 + 28 x_18_40
   + 49 x_18_41 + 59 x_18_42 + 50 x_18_43 + 46 x_18_44 + 55 x_18_45
   + 54 x_18_46 + 10 x_18_47 + 55 x_19_21 + 86 x_19_22 + 63 x_19_26
   + 26 x_19_27 + 61 x_19_30 + 36 x_19_31 + 45 x_19_35 + 55 x_19_39
   + 64 x_19_42 + 61 x_19_45 + 62 x_19_46 + 63 x_19_48 + 22 x_19_49
   + 65 x_20_21 + 74 x_20_22 + 25 x_20_23 + 50 x_20_26 + 40 x_20_28
   + 41 x_20_29 + 54 x_20_32 + 43 x_20_33 + 55 x_20_41 + 46 x_20_42
   + 61 x_20_43 + 59 x_20_44 + 43 x_20_45 + 16 x_20_47 + 60 x_20_48
   + 81 x_21_22 + 75 x_21_23 + 69 x_21_24 + 92 x_21_25 + 67 x_21_26
   + 41 x_21_27 + 53 x_21_28 + 24 x_21_31 + 92 x_21_33 + 35 x_21_36
   + 61 x_21_37 + 5 x_21_39 + 73 x_21_40 + 81 x_21_41 + 105 x_21_45
   + 49 x_21_47 + 42 x_21_48 + 75 x_21_49 + 47 x_22_25 + 24 x_22_26
   + 56 x_22_29 + 90 x_22_31 + 53 x_22_33 + 48 x_22_34 + 42 x_22_35
   + 53 x_22_36 + 106 x_22_37 + 71 x_22_38 + 77 x_22_39 + 14 x_22_43
   + 73 x_22_46 + 85 x_22_49 + 75 x_23_26 + 44 x_23_27 + 64 x_23_28
   + 61 x_23_29 + 68 x_23_30 + 54 x_23_31 + 71 x_23_32 + 64 x_23_33
   + 61 x_23_35 + 24 x_23_37 + 59 x_23_38 + 75 x_23_39 + 80 x_23_41
   + 55 x_23_45 + 57 x_23_46 + 31 x_23_47 + 34 x_24_28 + 31 x_24_30
   + 55 x_24_32 + 30 x_24_33 + 21 x_24_34 + 33 x_24_35 + 67 x_24_39
   + 39 x_24_42 + 35 x_24_45 + 25 x_24_47 + 56 x_24_48 + 41 x_25_28
   + 14 x_25_30 + 73 x_25_32 + 45 x_25_35 + 58 x_25_36 + 86 x_25_37
   + 23 x_25_41 + 27 x_25_46 + 57 x_25_47 + 54 x_26_38 + 61 x_26_49
   + 45 x_27_30 + 33 x_27_31 + 29 x_27_32 + 54 x_27_33 + 21 x_27_35
   + 44 x_27_37 + 62 x_27_38 + 67 x_27_42 + 62 x_27_46 + 38 x_27_48
   + 37 x_27_49 + 44 x_28_29 + 28 x_28_30 + 55 x_28_31 + 32 x_28_32
   + 43 x_28_33 + 5 x_28_35 + 58 x_28_38 + 29 x_28_41 + 67 x_28_42
   + 23 x_28_43 + 36 x_28_47 + 24 x_28_48 + 52 x_28_49 + 4 x_29_33
   + 37 x_29_34 + 79 x_29_37 + 89 x_29_39 + 46 x_29_40 + 27 x_29_42
   + 53 x_29_44 + 23 x_29_45 + 52 x_29_47 + 67 x_29_48 + 45 x_29_49
   + 78 x_30_31 + 60 x_30_32 + 18 x_30_33 + 27 x_30_34 + 76 x_30_39
   + 47 x_30_42 + 30 x_30_43 + 43 x_30_45 + 37 x_31_36 + 93 x_31_38
   + 70 x_31_44 + 93 x_31_45 + 92 x_31_46 + 55 x_31_48 + 58 x_31_49
   + 74 x_32_33 + 37 x_32_34 + 28 x_32_35 + 16 x_32_36 + 86 x_32_38
   + 64 x_32_40 + 60 x_32_41 + 47 x_32_43 + 87 x_32_46 + 82 x_33_37
   + 18 x_33_38 + 30 x_33_41 + 48 x_33_43 + 51 x_33_44 + 12 x_34_35
   + 49 x_34_38 + 52 x_34_39 + 34 x_34_41 + 57 x_34_42 + 50 x_34_46
   + 25 x_34_47 + 39 x_34_49 + 59 x_35_38 + 45 x_35_39 + 50 x_35_40
   + 68 x_35_42 + 23 x_35_44 + 64 x_35_45 + 60 x_35_46 + 23 x_35_48
   + 58 x_36_37 + 31 x_36_39 + 51 x_36_40 + 77 x_36_42 + 39 x_36_43
   + 73 x_36_45 + 28 x_36_47 + 80 x_37_38 + 34 x_37_40 + 79 x_37_42
   + 79 x_37_46 + 100 x_38_39 + 46 x_38_40 + 68 x_38_44 + 59 x_38_47
   + 44 x_38_49 + 72 x_39_40 + 77 x_39_41 + 106 x_39_42 + 64 x_39_43
   + 103 x_39_45 + 100 x_39_46 + 74 x_39_49 + 66 x_40_41 + 71 x_40_48
   + 3 x_40_49 + 60 x_41_42 + 50 x_41_46 + 58 x_41_47 + 65 x_41_49
   + 79 x_42_44 + 62 x_42_47 + 90 x_42_48 + 73 x_43_45 + 68 x_43_46
   + 28 x_43_48 + 73 x_43_49 + 75 x_44_45 + 70 x_44_46 + 55 x_44_47
   + 71 x_44_49 + 6 x_45_46 + 58 x_45_47 + 86 x_45_48 + 58 x_46_47
   + 42 x_46_49 + 50 x_47_48 + 26 x_47_49 + 72 x_48_49 + 895 Constant
Subject To
 c_0: y_2 = 1
 c_1_0: y_0 >= 1
 c_1_1: y_1 >= 1
 c_1_2: y_2 >= 1
 c_1_3: y_3 >= 1
 c_1_4: y_4 >= 1
 c_1_5: y_5 >= 1
 c_1_6: y_6 >= 1
 c_1_7: y_7 >= 1
 c_1_8: y_8 >= 1
 c_1_9: y_9 >= 1
 c_1_10: y_10 >= 1
 c_1_11: y_11 >= 1
 c_1_12: y_12 >= 1
 c_1_13: y_13 >= 1
 c_1_14: y_14 >= 1
 c_1_15: y_15 >= 1
 c_1_16: y_16 >= 1
 c_1_17: y_17 >= 1
 c_1_18: y_18 >= 1
 c_1_19: y_19 >= 1
 c_1_20: y_20 >= 1
 c_1_21: y_21 >= 1
 c_1_22: y_22 >= 1
 c_1_23: y_23 >= 1
 c_1_24: y_24 >= 1
 c_1_25: y_25 >= 1
 c_1_26: y_26 >= 1
 c_1_27: y_27 >= 1
 c_1_28: y_28 >= 1
 c_1_29: y_29 >= 1
 c_1_30: y_30 >= 1
 c_1_31: y_31 >= 1
 c_1_32: y_32 >= 1
 c_1_33: y_33 >= 1
 c_1_34: y_34 >= 1
 c_1_35: y_35 >= 1
 c_1_36: y_36 >= 1
 c_1_37: y_37 >= 1
 c_1_38: y_38 >= 1
 c_1_39: y_39 >= 1
 c_1_40: y_40 >= 1
 c_1_41: y_41 >= 1
 c_1_42: y_42 >= 1
 c_1_43: y_43 >= 1
 c_1_44: y_44 >= 1
 c_1_45: y_45 >= 1
 c_1_46: y_46 >= 1
 c_1_47: y_47 >= 1
 c_1_48: y_48 >= 1
 c_1_49: y_49 >= 1
 c_2_0: - 2 y_0 + x_0_1 + x_0_2 + x_0_3 + x_0_4 + x_0_5 + x_0_6 + x_0_10
   + x_0_11 + x_0_13 + x_0_15 + x_0_20 + x_0_25 + x_0_29 + x_0_30 + x_0_31
   + x_0_35 + x_0_38 + x_0_43 + x_0_45 + x_0_46 + x_0_49 = 0
 c_2_1: - 2 y_1 + x_0_1 + x_1_3 + x_1_5 + x_1_6 + x_1_7 + x_1_11 + x_1_12
   + x_1_13 + x_1_15 + x_1_19 + x_1_20 + x_1_21 + x_1_23 + x_1_28 + x_1_30
   + x_1_31 + x_1_35 + x_1_36 + x_1_37 + x_1_39 + x_1_41 + x_1_43 + x_1_44
   + x_1_45 + x_1_48 + x_1_49 = 0
 c_2_2: - 2 y_2 + x_0_2 + x_2_3 + x_2_4 + x_2_7 + x_2_8 + x_2_10 + x_2_12
   + x_2_13 + x_2_14 + x_2_15 + x_2_16 + x_2_18 + x_2_22 + x_2_24 + x_2_25
   + x_2_26 + x_2_27 + x_2_28 + x_2_29 + x_2_33 + x_2_38 + x_2_41 + x_2_43
   + x_2_44 + x_2_47 + x_2_48 + x_2_49 = 0
 c_2_3: - 2 y_3 + x_0_3 + x_1_3 + x_2_3 + x_3_5 + x_3_6 + x_3_9 + x_3_10
   + x_3_12 + x_3_13 + x_3_15 + x_3_16 + x_3_18 + x_3_19 + x_3_21 + x_3_22
   + x_3_23 + x_3_26 + x_3_27 + x_3_29 + x_3_30 + x_3_31 + x_3_34 + x_3_35
   + x_3_36 + x_3_37 + x_3_40 + x_3_41 + x_3_45 + x_3_46 + x_3_47 = 0
 c_2_4: - 2 y_4 + x_0_4 + x_2_4 + x_4_6 + x_4_8 + x_4_9 + x_4_10 + x_4_12
   + x_4_15 + x_4_16 + x_4_18 + x_4_20 + x_4_23 + x_4_24 + x_4_25 + x_4_26
   + x_4_27 + x_4_28 + x_4_30 + x_4_33 + x_4_35 + x_4_36 + x_4_37 + x_4_38
   + x_4_40 + x_4_41 + x_4_42 + x_4_44 + x_4_46 + x_4_49 = 0
 c_2_5: - 2 y_5 + x_0_5 + x_1_5 + x_3_5 + x_5_7 + x_5_9 + x_5_10 + x_5_11
   + x_5_12 + x_5_13 + x_5_14 + x_5_16 + x_5_19 + x_5_20 + x_5_22 + x_5_23
   + x_5_26 + x_5_27 + x_5_29 + x_5_31 + x_5_34 + x_5_35 + x_5_41 + x_5_43
   + x_5_45 = 0
 c_2_6: - 2 y_6 + x_0_6 + x_1_6 + x_3_6 + x_4_6 + x_6_7 + x_6_8 + x_6_10
   + x_6_11 + x_6_13 + x_6_15 + x_6_17 + x_6_19 + x_6_24 + x_6_29 + x_6_31
   + x_6_32 + x_6_38 + x_6_41 + x_6_42 + x_6_44 + x_6_46 + x_6_47 + x_6_48
   + x_6_49 = 0
 c_2_7: - 2 y_7 + x_1_7 + x_2_7 + x_5_7 + x_6_7 + x_7_9 + x_7_13 + x_7_15
   + x_7_16 + x_7_18 + x_7_19 + x_7_22 + x_7_23 + x_7_25 + x_7_28 + x_7_31
   + x_7_33 + x_7_34 + x_7_35 + x_7_40 + x_7_42 + x_7_43 + x_7_45 + x_7_48
   + 2 x_12_7 = 0
 c_2_8: - 2 y_8 + x_2_8 + x_4_8 + x_6_8 + x_8_9 + x_8_10 + x_8_13 + x_8_15
   + x_8_16 + x_8_18 + x_8_19 + x_8_21 + x_8_22 + x_8_23 + x_8_25 + x_8_30
   + x_8_32 + x_8_33 + x_8_34 + x_8_36 + x_8_38 + x_8_39 + x_8_43 + x_8_47
   = 0
 c_2_9: - 2 y_9 + x_3_9 + x_4_9 + x_5_9 + x_7_9 + x_8_9 + x_9_10 + x_9_11
   + x_9_12 + x_9_13 + x_9_17 + x_9_19 + x_9_21 + x_9_23 + x_9_24 + x_9_25
   + x_9_27 + x_9_33 + x_9_34 + x_9_35 + x_9_36 + x_9_37 + x_9_39 + x_9_40
   + x_9_45 + x_9_46 + x_9_47 = 0
 c_2_10: - 2 y_10 + x_0_10 + x_2_10 + x_3_10 + x_4_10 + x_5_10 + x_6_10
   + x_8_10 + x_9_10 + x_10_14 + x_10_15 + x_10_16 + x_10_18 + x_10_19
   + x_10_24 + x_10_25 + x_10_26 + x_10_27 + x_10_29 + x_10_30 + x_10_32
   + x_10_33 + x_10_35 + x_10_36 + x_10_38 + x_10_41 + x_10_44 + x_10_46
   + x_10_47 + x_10_49 = 0
 c_2_11: - 2 y_11 + x_0_11 + x_1_11 + x_5_11 + x_6_11 + x_9_11 + x_11_12
   + x_11_13 + x_11_15 + x_11_17 + x_11_19 + x_11_20 + x_11_23 + x_11_25
   + x_11_26 + x_11_27 + x_11_30 + x_11_31 + x_11_33 + x_11_36 + x_11_41
   + x_11_42 + x_11_44 + x_11_46 + x_11_48 = 0
 c_2_12: - 2 y_12 + x_1_12 + x_2_12 + x_3_12 + x_4_12 + x_5_12 + x_9_12
   + x_11_12 + 2 x_12_7 + x_12_16 + x_12_18 + x_12_20 + x_12_21 + x_12_23
   + x_12_24 + x_12_25 + x_12_27 + x_12_30 + x_12_32 + x_12_33 + x_12_35
   + x_12_39 + x_12_40 + x_12_42 + x_12_46 + x_12_48 + x_12_49 = 0
 c_2_13: - 2 y_13 + x_0_13 + x_1_13 + x_2_13 + x_3_13 + x_5_13 + x_6_13
   + x_7_13 + x_8_13 + x_9_13 + x_11_13 + x_13_20 + x_13_24 + x_13_25
   + x_13_26 + x_13_27 + x_13_28 + x_13_30 + x_13_32 + x_13_33 + x_13_34
   + x_13_36 + x_13_37 + x_13_40 + x_13_41 + x_13_42 + x_13_43 + x_13_46
   + x_13_49 = 0
 c_2_14: - 2 y_14 + x_2_14 + x_5_14 + x_10_14 + x_14_15 + x_14_16 + x_14_19
   + x_14_26 + x_14_27 + x_14_29 + x_14_31 + x_14_33 + x_14_36 + x_14_38
   + x_14_40 + x_14_41 + x_14_42 + x_14_44 + x_14_46 + x_14_49 = 0
 c_2_15: - 2 y_15 + x_0_15 + x_1_15 + x_2_15 + x_3_15 + x_4_15 + x_6_15
   + x_7_15 + x_8_15 + x_10_15 + x_11_15 + x_14_15 + x_15_16 + x_15_17
   + x_15_18 + x_15_19 + x_15_22 + x_15_25 + x_15_26 + x_15_29 + x_15_30
   + x_15_32 + x_15_34 + x_15_37 + x_15_38 + x_15_39 + x_15_44 + x_15_45
   + x_15_46 + x_15_48 = 0
 c_2_16: - 2 y_16 + x_2_16 + x_3_16 + x_4_16 + x_5_16 + x_7_16 + x_8_16
   + x_10_16 + x_12_16 + x_14_16 + x_15_16 + x_16_18 + x_16_20 + x_16_25
   + x_16_26 + x_16_28 + x_16_29 + x_16_30 + x_16_32 + x_16_33 + x_16_34
   + x_16_35 + x_16_36 + x_16_39 + x_16_41 = 0
 c_2_17: - 2 y_17 + x_6_17 + x_9_17 + x_11_17 + x_15_17 + x_17_18 + x_17_19
   + x_17_21 + x_17_22 + x_17_23 + x_17_25 + x_17_28 + x_17_30 + x_17_35
   + x_17_44 + x_17_45 = 0
 c_2_18: - 2 y_18 + x_2_18 + x_3_18 + x_4_18 + x_7_18 + x_8_18 + x_10_18
   + x_12_18 + x_15_18 + x_16_18 + x_17_18 + x_18_19 + x_18_21 + x_18_22
   + x_18_26 + x_18_27 + x_18_28 + x_18_29 + x_18_32 + x_18_33 + x_18_34
   + x_18_36 + x_18_37 + x_18_38 + x_18_39 + x_18_40 + x_18_41 + x_18_42
   + x_18_43 + x_18_44 + x_18_45 + x_18_46 + x_18_47 = 0
 c_2_19: - 2 y_19 + x_1_19 + x_3_19 + x_5_19 + x_6_19 + x_7_19 + x_8_19
   + x_9_19 + x_10_19 + x_11_19 + x_14_19 + x_15_19 + x_17_19 + x_18_19
   + x_19_21 + x_19_22 + x_19_26 + x_19_27 + x_19_30 + x_19_31 + x_19_35
   + x_19_39 + x_19_42 + x_19_45 + x_19_46 + x_19_48 + x_19_49 = 0
 c_2_20: - 2 y_20 + x_0_20 + x_1_20 + x_4_20 + x_5_20 + x_11_20 + x_12_20
   + x_13_20 + x_16_20 + x_20_21 + x_20_22 + x_20_23 + x_20_26 + x_20_28
   + x_20_29 + x_20_32 + x_20_33 + x_20_41 + x_20_42 + x_20_43 + x_20_44
   + x_20_45 + x_20_47 + x_20_48 = 0
 c_2_21: - 2 y_21 + x_1_21 + x_3_21 + x_8_21 + x_9_21 + x_12_21 + x_17_21
   + x_18_21 + x_19_21 + x_20_21 + x_21_22 + x_21_23 + x_21_24 + x_21_25
   + x_21_26 + x_21_27 + x_21_28 + x_21_31 + x_21_33 + x_21_36 + x_21_37
   + x_21_39 + x_21_40 + x_21_41 + x_21_45 + x_21_47 + x_21_48 + x_21_49
   = 0
 c_2_22: - 2 y_22 + x_2_22 + x_3_22 + x_5_22 + x_7_22 + x_8_22 + x_15_22
   + x_17_22 + x_18_22 + x_19_22 + x_20_22 + x_21_22 + x_22_25 + x_22_26
   + x_22_29 + x_22_31 + x_22_33 + x_22_34 + x_22_35 + x_22_36 + x_22_37
   + x_22_38 + x_22_39 + x_22_43 + x_22_46 + x_22_49 = 0
 c_2_23: - 2 y_23 + x_1_23 + x_3_23 + x_4_23 + x_5_23 + x_7_23 + x_8_23
   + x_9_23 + x_11_23 + x_12_23 + x_17_23 + x_20_23 + x_21_23 + x_23_26
   + x_23_27 + x_23_28 + x_23_29 + x_23_30 + x_23_31 + x_23_32 + x_23_33
   + x_23_35 + x_23_37 + x_23_38 + x_23_39 + x_23_41 + x_23_45 + x_23_46
   + x_23_47 = 0
 c_2_24: - 2 y_24 + x_2_24 + x_4_24 + x_6_24 + x_9_24 + x_10_24 + x_12_24
   + x_13_24 + x_21_24 + x_24_28 + x_24_30 + x_24_32 + x_24_33 + x_24_34
   + x_24_35 + x_24_39 + x_24_42 + x_24_45 + x_24_47 + x_24_48 = 0
 c_2_25: - 2 y_25 + x_0_25 + x_2_25 + x_4_25 + x_7_25 + x_8_25 + x_9_25
   + x_10_25 + x_11_25 + x_12_25 + x_13_25 + x_15_25 + x_16_25 + x_17_25
   + x_21_25 + x_22_25 + x_25_28 + x_25_30 + x_25_32 + x_25_35 + x_25_36
   + x_25_37 + x_25_41 + x_25_46 + x_25_47 = 0
 c_2_26: - 2 y_26 + x_2_26 + x_3_26 + x_4_26 + x_5_26 + x_10_26 + x_11_26
   + x_13_26 + x_14_26 + x_15_26 + x_16_26 + x_18_26 + x_19_26 + x_20_26
   + x_21_26 + x_22_26 + x_23_26 + x_26_38 + x_26_49 = 0
 c_2_27: - 2 y_27 + x_2_27 + x_3_27 + x_4_27 + x_5_27 + x_9_27 + x_10_27
   + x_11_27 + x_12_27 + x_13_27 + x_14_27 + x_18_27 + x_19_27 + x_21_27
   + x_23_27 + x_27_30 + x_27_31 + x_27_32 + x_27_33 + x_27_35 + x_27_37
   + x_27_38 + x_27_42 + x_27_46 + x_27_48 + x_27_49 = 0
 c_2_28: - 2 y_28 + x_1_28 + x_2_28 + x_4_28 + x_7_28 + x_13_28 + x_16_28
   + x_17_28 + x_18_28 + x_20_28 + x_21_28 + x_23_28 + x_24_28 + x_25_28
   + x_28_29 + x_28_30 + x_28_31 + x_28_32 + x_28_33 + x_28_35 + x_28_38
   + x_28_41 + x_28_42 + x_28_43 + x_28_47 + x_28_48 + x_28_49 = 0
 c_2_29: - 2 y_29 + x_0_29 + x_2_29 + x_3_29 + x_5_29 + x_6_29 + x_10_29
   + x_14_29 + x_15_29 + x_16_29 + x_18_29 + x_20_29 + x_22_29 + x_23_29
   + x_28_29 + x_29_33 + x_29_34 + x_29_37 + x_29_39 + x_29_40 + x_29_42
   + x_29_44 + x_29_45 + x_29_47 + x_29_48 + x_29_49 = 0
 c_2_30: - 2 y_30 + x_0_30 + x_1_30 + x_3_30 + x_4_30 + x_8_30 + x_10_30
   + x_11_30 + x_12_30 + x_13_30 + x_15_30 + x_16_30 + x_17_30 + x_19_30
   + x_23_30 + x_24_30 + x_25_30 + x_27_30 + x_28_30 + x_30_31 + x_30_32
   + x_30_33 + x_30_34 + x_30_39 + x_30_42 + x_30_43 + x_30_45 = 0
 c_2_31: - 2 y_31 + x_0_31 + x_1_31 + x_3_31 + x_5_31 + x_6_31 + x_7_31
   + x_11_31 + x_14_31 + x_19_31 + x_21_31 + x_22_31 + x_23_31 + x_27_31
   + x_28_31 + x_30_31 + x_31_36 + x_31_38 + x_31_44 + x_31_45 + x_31_46
   + x_31_48 + x_31_49 = 0
 c_2_32: - 2 y_32 + x_6_32 + x_8_32 + x_10_32 + x_12_32 + x_13_32 + x_15_32
   + x_16_32 + x_18_32 + x_20_32 + x_23_32 + x_24_32 + x_25_32 + x_27_32
   + x_28_32 + x_30_32 + x_32_33 + x_32_34 + x_32_35 + x_32_36 + x_32_38
   + x_32_40 + x_32_41 + x_32_43 + x_32_46 = 0
 c_2_33: - 2 y_33 + x_2_33 + x_4_33 + x_7_33 + x_8_33 + x_9_33 + x_10_33
   + x_11_33 + x_12_33 + x_13_33 + x_14_33 + x_16_33 + x_18_33 + x_20_33
   + x_21_33 + x_22_33 + x_23_33 + x_24_33 + x_27_33 + x_28_33 + x_29_33
   + x_30_33 + x_32_33 + x_33_37 + x_33_38 + x_33_41 + x_33_43 + x_33_44
   = 0
 c_2_34: - 2 y_34 + x_3_34 + x_5_34 + x_7_34 + x_8_34 + x_9_34 + x_13_34
   + x_15_34 + x_16_34 + x_18_34 + x_22_34 + x_24_34 + x_29_34 + x_30_34
   + x_32_34 + x_34_35 + x_34_38 + x_34_39 + x_34_41 + x_34_42 + x_34_46
   + x_34_47 + x_34_49 = 0
 c_2_35: - 2 y_35 + x_0_35 + x_1_35 + x_3_35 + x_4_35 + x_5_35 + x_7_35
   + x_9_35 + x_10_35 + x_12_35 + x_16_35 + x_17_35 + x_19_35 + x_22_35
   + x_23_35 + x_24_35 + x_25_35 + x_27_35 + x_28_35 + x_32_35 + x_34_35
   + x_35_38 + x_35_39 + x_35_40 + x_35_42 + x_35_44 + x_35_45 + x_35_46
   + x_35_48 = 0
 c_2_36: - 2 y_36 + x_1_36 + x_3_36 + x_4_36 + x_8_36 + x_9_36 + x_10_36
   + x_11_36 + x_13_36 + x_14_36 + x_16_36 + x_18_36 + x_21_36 + x_22_36
   + x_25_36 + x_31_36 + x_32_36 + x_36_37 + x_36_39 + x_36_40 + x_36_42
   + x_36_43 + x_36_45 + x_36_47 = 0
 c_2_37: - 2 y_37 + x_1_37 + x_3_37 + x_4_37 + x_9_37 + x_13_37 + x_15_37
   + x_18_37 + x_21_37 + x_22_37 + x_23_37 + x_25_37 + x_27_37 + x_29_37
   + x_33_37 + x_36_37 + x_37_38 + x_37_40 + x_37_42 + x_37_46 = 0
 c_2_38: - 2 y_38 + x_0_38 + x_2_38 + x_4_38 + x_6_38 + x_8_38 + x_10_38
   + x_14_38 + x_15_38 + x_18_38 + x_22_38 + x_23_38 + x_26_38 + x_27_38
   + x_28_38 + x_31_38 + x_32_38 + x_33_38 + x_34_38 + x_35_38 + x_37_38
   + x_38_39 + x_38_40 + x_38_44 + x_38_47 + x_38_49 = 0
 c_2_39: - 2 y_39 + x_1_39 + x_8_39 + x_9_39 + x_12_39 + x_15_39 + x_16_39
   + x_18_39 + x_19_39 + x_21_39 + x_22_39 + x_23_39 + x_24_39 + x_29_39
   + x_30_39 + x_34_39 + x_35_39 + x_36_39 + x_38_39 + x_39_40 + x_39_41
   + x_39_42 + x_39_43 + x_39_45 + x_39_46 + x_39_49 = 0
 c_2_40: - 2 y_40 + x_3_40 + x_4_40 + x_7_40 + x_9_40 + x_12_40 + x_13_40
   + x_14_40 + x_18_40 + x_21_40 + x_29_40 + x_32_40 + x_35_40 + x_36_40
   + x_37_40 + x_38_40 + x_39_40 + x_40_41 + x_40_48 + x_40_49 = 0
 c_2_41: - 2 y_41 + x_1_41 + x_2_41 + x_3_41 + x_4_41 + x_5_41 + x_6_41
   + x_10_41 + x_11_41 + x_13_41 + x_14_41 + x_16_41 + x_18_41 + x_20_41
   + x_21_41 + x_23_41 + x_25_41 + x_28_41 + x_32_41 + x_33_41 + x_34_41
   + x_39_41 + x_40_41 + x_41_42 + x_41_46 + x_41_47 + x_41_49 = 0
 c_2_42: - 2 y_42 + x_4_42 + x_6_42 + x_7_42 + x_11_42 + x_12_42 + x_13_42
   + x_14_42 + x_18_42 + x_19_42 + x_20_42 + x_24_42 + x_27_42 + x_28_42
   + x_29_42 + x_30_42 + x_34_42 + x_35_42 + x_36_42 + x_37_42 + x_39_42
   + x_41_42 + x_42_44 + x_42_47 + x_42_48 = 0
 c_2_43: - 2 y_43 + x_0_43 + x_1_43 + x_2_43 + x_5_43 + x_7_43 + x_8_43
   + x_13_43 + x_18_43 + x_20_43 + x_22_43 + x_28_43 + x_30_43 + x_32_43
   + x_33_43 + x_36_43 + x_39_43 + x_43_45 + x_43_46 + x_43_48 + x_43_49
   = 0
 c_2_44: - 2 y_44 + x_1_44 + x_2_44 + x_4_44 + x_6_44 + x_10_44 + x_11_44
   + x_14_44 + x_15_44 + x_17_44 + x_18_44 + x_20_44 + x_29_44 + x_31_44
   + x_33_44 + x_35_44 + x_38_44 + x_42_44 + x_44_45 + x_44_46 + x_44_47
   + x_44_49 = 0
 c_2_45: - 2 y_45 + x_0_45 + x_1_45 + x_3_45 + x_5_45 + x_7_45 + x_9_45
   + x_15_45 + x_17_45 + x_18_45 + x_19_45 + x_20_45 + x_21_45 + x_23_45
   + x_24_45 + x_29_45 + x_30_45 + x_31_45 + x_35_45 + x_36_45 + x_39_45
   + x_43_45 + x_44_45 + x_45_46 + x_45_47 + x_45_48 = 0
 c_2_46: - 2 y_46 + x_0_46 + x_3_46 + x_4_46 + x_6_46 + x_9_46 + x_10_46
   + x_11_46 + x_12_46 + x_13_46 + x_14_46 + x_15_46 + x_18_46 + x_19_46
   + x_22_46 + x_23_46 + x_25_46 + x_27_46 + x_31_46 + x_32_46 + x_34_46
   + x_35_46 + x_37_46 + x_39_46 + x_41_46 + x_43_46 + x_44_46 + x_45_46
   + x_46_47 + x_46_49 = 0
 c_2_47: - 2 y_47 + x_2_47 + x_3_47 + x_6_47 + x_8_47 + x_9_47 + x_10_47
   + x_18_47 + x_20_47 + x_21_47 + x_23_47 + x_24_47 + x_25_47 + x_28_47
   + x_29_47 + x_34_47 + x_36_47 + x_38_47 + x_41_47 + x_42_47 + x_44_47
   + x_45_47 + x_46_47 + x_47_48 + x_47_49 = 0
 c_2_48: - 2 y_48 + x_1_48 + x_2_48 + x_6_48 + x_7_48 + x_11_48 + x_12_48
   + x_15_48 + x_19_48 + x_20_48 + x_21_48 + x_24_48 + x_27_48 + x_28_48
   + x_29_48 + x_31_48 + x_35_48 + x_40_48 + x_42_48 + x_43_48 + x_45_48
   + x_47_48 + x_48_49 = 0
 c_2_49: - 2 y_49 + x_0_49 + x_1_49 + x_2_49 + x_4_49 + x_6_49 + x_10_49
   + x_12_49 + x_13_49 + x_14_49 + x_19_49 + x_21_49 + x_22_49 + x_26_49
   + x_27_49 + x_28_49 + x_29_49 + x_31_49 + x_34_49 + x_38_49 + x_39_49
   + x_40_49 + x_41_49 + x_43_49 + x_44_49 + x_46_49 + x_47_49 + x_48_49
   = 0
Bounds
 Constant = 1
Binaries
 y_0 y_1 y_2 y_3 y_4 y_5 y_6 y_7 y_8 y_9 y_10 y_11 y_12 y_13 y_14 y_15 y_16
 y_17 y_18 y_19 y_20 y_21 y_22 y_23 y_24 y_25 y_26 y_27 y_28 y_29 y_30 y_31
 y_32 y_33 y_34 y_35 y_36 y_37 y_38 y_39 y_40 y_41 y_42 y_43 y_44 y_45 y_46
 y_47 y_48 y_49 x_0_1 x_0_2 x_0_3 x_0_4 x_0_5 x_0_6 x_0_10 x_0_11 x_0_13
 x_0_15 x_0_20 x_0_25 x_0_29 x_0_30 x_0_31 x_0_35 x_0_38 x_0_43 x_0_45
 x_0_46 x_0_49 x_1_3 x_1_5 x_1_6 x_1_7 x_1_11 x_1_12 x_1_13 x_1_15 x_1_19
 x_1_20 x_1_21 x_1_23 x_1_28 x_1_30 x_1_31 x_1_35 x_1_36 x_1_37 x_1_39
 x_1_41 x_1_43 x_1_44 x_1_45 x_1_48 x_1_49 x_2_3 x_2_4 x_2_7 x_2_8 x_2_10
 x_2_12 x_2_13 x_2_14 x_2_15 x_2_16 x_2_18 x_2_22 x_2_24 x_2_25 x_2_26
 x_2_27 x_2_28 x_2_29 x_2_33 x_2_38 x_2_41 x_2_43 x_2_44 x_2_47 x_2_48
 x_2_49 x_3_5 x_3_6 x_3_9 x_3_10 x_3_12 x_3_13 x_3_15 x_3_16 x_3_18 x_3_19
 x_3_21 x_3_22 x_3_23 x_3_26 x_3_27 x_3_29 x_3_30 x_3_31 x_3_34 x_3_35
 x_3_36 x_3_37 x_3_40 x_3_41 x_3_45 x_3_46 x_3_47 x_4_6 x_4_8 x_4_9 x_4_10
 x_4_12 x_4_15 x_4_16 x_4_18 x_4_20 x_4_23 x_4_24 x_4_25 x_4_26 x_4_27
 x_4_28 x_4_30 x_4_33 x_4_35 x_4_36 x_4_37 x_4_38 x_4_40 x_4_41 x_4_42
 x_4_44 x_4_46 x_4_49 x_5_7 x_5_9 x_5_10 x_5_11 x_5_12 x_5_13 x_5_14 x_5_16
 x_5_19 x_5_20 x_5_22 x_5_23 x_5_26 x_5_27 x_5_29 x_5_31 x_5_34 x_5_35
 x_5_41 x_5_43 x_5_45 x_6_7 x_6_8 x_6_10 x_6_11 x_6_13 x_6_15 x_6_17 x_6_19
 x_6_24 x_6_29 x_6_31 x_6_32 x_6_38 x_6_41 x_6_42 x_6_44 x_6_46 x_6_47
 x_6_48 x_6_49 x_7_9 x_7_12 x_7_13 x_7_15 x_7_16 x_7_18 x_7_19 x_7_22
 x_7_23 x_7_25 x_7_28 x_7_31 x_7_33 x_7_34 x_7_35 x_7_40 x_7_42 x_7_43
 x_7_45 x_7_48 x_8_9 x_8_10 x_8_13 x_8_15 x_8_16 x_8_18 x_8_19 x_8_21
 x_8_22 x_8_23 x_8_25 x_8_30 x_8_32 x_8_33 x_8_34 x_8_36 x_8_38 x_8_39
 x_8_43 x_8_47 x_9_10 x_9_11 x_9_12 x_9_13 x_9_17 x_9_19 x_9_21 x_9_23
 x_9_24 x_9_25 x_9_27 x_9_33 x_9_34 x_9_35 x_9_36 x_9_37 x_9_39 x_9_40
 x_9_45 x_9_46 x_9_47 x_10_14 x_10_15 x_10_16 x_10_18 x_10_19 x_10_24
 x_10_25 x_10_26 x_10_27 x_10_29 x_10_30 x_10_32 x_10_33 x_10_35 x_10_36
 x_10_38 x_10_41 x_10_44 x_10_46 x_10_47 x_10_49 x_11_12 x_11_13 x_11_15
 x_11_17 x_11_19 x_11_20 x_11_23 x_11_25 x_11_26 x_11_27 x_11_30 x_11_31
 x_11_33 x_11_36 x_11_41 x_11_42 x_11_44 x_11_46 x_11_48 x_12_7 x_12_16
 x_12_18 x_12_20 x_12_21 x_12_23 x_12_24 x_12_25 x_12_27 x_12_30 x_12_32
 x_12_33 x_12_35 x_12_39 x_12_40 x_12_42 x_12_46 x_12_48 x_12_49 x_13_20
 x_13_24 x_13_25 x_13_26 x_13_27 x_13_28 x_13_30 x_13_32 x_13_33 x_13_34
 x_13_36 x_13_37 x_13_40 x_13_41 x_13_42 x_13_43 x_13_46 x_13_49 x_14_15
 x_14_16 x_14_19 x_14_26 x_14_27 x_14_29 x_14_31 x_14_33 x_14_36 x_14_38
 x_14_40 x_14_41 x_14_42 x_14_44 x_14_46 x_14_49 x_15_16 x_15_17 x_15_18
 x_15_19 x_15_22 x_15_25 x_15_26 x_15_29 x_15_30 x_15_32 x_15_34 x_15_37
 x_15_38 x_15_39 x_15_44 x_15_45 x_15_46 x_15_48 x_16_18 x_16_20 x_16_25
 x_16_26 x_16_28 x_16_29 x_16_30 x_16_32 x_16_33 x_16_34 x_16_35 x_16_36
 x_16_39 x_16_41 x_17_18 x_17_19 x_17_21 x_17_22 x_17_23 x_17_25 x_17_28
 x_17_30 x_17_35 x_17_44 x_17_45 x_18_19 x_18_21 x_18_22 x_18_26 x_18_27
 x_18_28 x_18_29 x_18_32 x_18_33 x_18_34 x_18_36 x_18_37 x_18_38 x_18_39
 x_18_40 x_18_41 x_18_42 x_18_43 x_18_44 x_18_45 x_18_46 x_18_47 x_19_21
 x_19_22 x_19_26 x_19_27 x_19_30 x_19_31 x_19_35 x_19_39 x_19_42 x_19_45
 x_19_46 x_19_48 x_19_49 x_20_21 x_20_22 x_20_23 x_20_26 x_20_28 x_20_29
 x_20_32 x_20_33 x_20_41 x_20_42 x_20_43 x_20_44 x_20_45 x_20_47 x_20_48
 x_21_22 x_21_23 x_21_24 x_21_25 x_21_26 x_21_27 x_21_28 x_21_31 x_21_33
 x_21_36 x_21_37 x_21_39 x_21_40 x_21_41 x_21_45 x_21_47 x_21_48 x_21_49
 x_22_25 x_22_26 x_22_29 x_22_31 x_22_33 x_22_34 x_22_35 x_22_36 x_22_37
 x_22_38 x_22_39 x_22_43 x_22_46 x_22_49 x_23_26 x_23_27 x_23_28 x_23_29
 x_23_30 x_23_31 x_23_32 x_23_33 x_23_35 x_23_37 x_23_38 x_23_39 x_23_41
 x_23_45 x_23_46 x_23_47 x_24_28 x_24_30 x_24_32 x_24_33 x_24_34 x_24_35
 x_24_39 x_24_42 x_24_45 x_24_47 x_24_48 x_25_28 x_25_30 x_25_32 x_25_35
 x_25_36 x_25_37 x_25_41 x_25_46 x_25_47 x_26_38 x_26_49 x_27_30 x_27_31
 x_27_32 x_27_33 x_27_35 x_27_37 x_27_38 x_27_42 x_27_46 x_27_48 x_27_49
 x_28_29 x_28_30 x_28_31 x_28_32 x_28_33 x_28_35 x_28_38 x_28_41 x_28_42
 x_28_43 x_28_47 x_28_48 x_28_49 x_29_33 x_29_34 x_29_37 x_29_39 x_29_40
 x_29_42 x_29_44 x_29_45 x_29_47 x_29_48 x_29_49 x_30_31 x_30_32 x_30_33
 x_30_34 x_30_39 x_30_42 x_30_43 x_30_45 x_31_36 x_31_38 x_31_44 x_31_45
 x_31_46 x_31_48 x_31_49 x_32_33 x_32_34 x_32_35 x_32_36 x_32_38 x_32_40
 x_32_41 x_32_43 x_32_46 x_33_37 x_33_38 x_33_41 x_33_43 x_33_44 x_34_35
 x_34_38 x_34_39 x_34_41 x_34_42 x_34_46 x_34_47 x_34_49 x_35_38 x_35_39
 x_35_40 x_35_42 x_35_44 x_35_45 x_35_46 x_35_48 x_36_37 x_36_39 x_36_40
 x_36_42 x_36_43 x_36_45 x_36_47 x_37_38 x_37_40 x_37_42 x_37_46 x_38_39
 x_38_40 x_38_44 x_38_47 x_38_49 x_39_40 x_39_41 x_39_42 x_39_43 x_39_45
 x_39_46 x_39_49 x_40_41 x_40_48 x_40_49 x_41_42 x_41_46 x_41_47 x_41_49
 x_42_44 x_42_47 x_42_48 x_43_45 x_43_46 x_43_48 x_43_49 x_44_45 x_44_46
 x_44_47 x_44_49 x_45_46 x_45_47 x_45_48 x_46_47 x_46_49 x_47_48 x_47_49
 x_48_49
End
